instances/knapsack/discrete/knapsack_130_12.lp
\ Model knapsack_130_12
\ LP format - for model browsing. Use MPS format to capture full model detail.
\ Signature: 0x8c644a484ac146d4
Minimize
  - 43 x[0] - 43 x[1] - 49 x[2] - 13 x[3] - 30 x[4] - 54 x[5] - 78 x[6]
   - 68 x[7] - 19 x[8] - 15 x[9] - 68 x[10] - 24 x[11] - 44 x[12]
   - 27 x[13] - 48 x[14] - 9 x[15] - 99 x[16] - 75 x[17] - 7 x[18]
   - 98 x[19] - 6 x[20] - 80 x[21] - 5 x[22] - 45 x[23] - 46 x[24]
   - 11 x[25] - x[26] - 52 x[27] - 31 x[28] - 73 x[29] - 98 x[30]
   - 81 x[31] - 81 x[32] - 4 x[33] - 4 x[34] - 34 x[35] - 78 x[36]
   - 88 x[37] - 47 x[38] - 52 x[39] - 69 x[40] - 54 x[41] - 46 x[42]
   - 20 x[43] - 23 x[44] - 12 x[45] - 57 x[46] - 17 x[47] - 53 x[48]
   - 26 x[49] - 96 x[50] - 91 x[51] - 52 x[52] - 34 x[53] - 81 x[54]
   - 75 x[55] - 43 x[56] - 85 x[57] - 57 x[58] - 88 x[59] - 25 x[60]
   - 63 x[61] - 66 x[62] - 62 x[63] - 99 x[64] - 18 x[65] - 98 x[66]
   - 58 x[67] - 85 x[68] - 50 x[69] - 6 x[70] - 12 x[71] - 90 x[72]
   - 62 x[73] - 27 x[74] - 59 x[75] - 23 x[76] - 2 x[77] - 65 x[78]
   - 20 x[79] - 80 x[80] - 51 x[81] - 70 x[82] - 27 x[83] - 50 x[84]
   - 93 x[85] - 87 x[86] - 92 x[87] - 9 x[88] - 31 x[89] - 99 x[90]
   - 70 x[91] - 98 x[92] - 37 x[93] - 13 x[94] - 15 x[95] - 98 x[96]
   - 41 x[97] - 29 x[98] - 77 x[99] - 57 x[100] - 54 x[101] - 67 x[102]
   - 70 x[103] - 16 x[104] - 28 x[105] - 19 x[106] - 45 x[107] - 51 x[108]
   - 45 x[109] - 38 x[110] - 55 x[111] - 38 x[112] - 8 x[113] - 87 x[114]
   - 58 x[115] - 8 x[116] - 22 x[117] - 11 x[118] - 40 x[119] - 42 x[120]
   - 7 x[121] - 23 x[122] - 92 x[123] - 48 x[124] - x[125] - x[126]
   - 91 x[127] - 36 x[128] - 97 x[129]
Subject To
 primal_upper: 26 x[0] + 91 x[1] + 73 x[2] + 90 x[3] + 59 x[4] + 20 x[5]
   + 84 x[6] + 42 x[7] + 36 x[8] + 61 x[9] + 90 x[10] + 34 x[11] + 31 x[12]
   + 79 x[13] + 55 x[14] + 87 x[15] + 24 x[16] + 55 x[17] + 60 x[18]
   + 89 x[19] + 60 x[20] + 18 x[21] + 39 x[22] + 81 x[23] + 43 x[24]
   + 35 x[25] + 57 x[26] + 6 x[27] + 60 x[28] + 90 x[29] + 12 x[30]
   + 86 x[31] + 50 x[32] + 12 x[33] + 35 x[34] + 72 x[35] + 71 x[36]
   + 75 x[37] + 11 x[38] + 69 x[39] + 54 x[40] + 12 x[41] + 53 x[42]
   + 12 x[43] + 26 x[44] + 81 x[45] + 100 x[46] + 100 x[47] + 30 x[48]
   + 39 x[49] + 25 x[50] + 99 x[51] + 48 x[52] + 35 x[53] + 43 x[54]
   + 10 x[55] + 84 x[56] + 37 x[57] + 19 x[58] + 53 x[59] + 3 x[60]
   + 9 x[61] + 58 x[62] + x[63] + 62 x[64] + 3 x[65] + 7 x[66] + 45 x[67]
   + 87 x[68] + 56 x[69] + 56 x[70] + 40 x[71] + 93 x[72] + 74 x[73]
   + 58 x[74] + 23 x[75] + 81 x[76] + 46 x[77] + 23 x[78] + 13 x[79]
   + 92 x[80] + 52 x[81] + 33 x[82] + 4 x[83] + 96 x[84] + 72 x[85]
   + 62 x[86] + 55 x[87] + 41 x[88] + 70 x[89] + 87 x[90] + 51 x[91]
   + 51 x[92] + 78 x[93] + 75 x[94] + 100 x[95] + 44 x[96] + 23 x[97]
   + 67 x[98] + 35 x[99] + 52 x[100] + 11 x[101] + 17 x[102] + 47 x[103]
   + 20 x[104] + 29 x[105] + 46 x[106] + 37 x[107] + 69 x[108] + 40 x[109]
   + 37 x[110] + 62 x[111] + 32 x[112] + 60 x[113] + 64 x[114] + 29 x[115]
   + 62 x[116] + 84 x[117] + 16 x[118] + 71 x[119] + 42 x[120] + 55 x[121]
   + 66 x[122] + 37 x[123] + 4 x[124] + 33 x[125] + 10 x[126] + 10 x[127]
   + 65 x[128] + 98 x[129] + 2.6 r[0] + 9.1 r[1] + 7.3 r[2] + 9 r[3]
   + 5.9 r[4] + 2 r[5] + 8.4 r[6] + 4.2 r[7] + 3.6 r[8] + 6.1 r[9]
   + 9 r[10] + 3.4 r[11] + 3.1 r[12] + 7.9 r[13] + 5.5 r[14] + 8.7 r[15]
   + 2.4 r[16] + 5.5 r[17] + 6 r[18] + 8.9 r[19] + 6 r[20] + 1.8 r[21]
   + 3.9 r[22] + 8.1 r[23] + 4.3 r[24] + 3.5 r[25] + 5.7 r[26] + 0.6 r[27]
   + 6 r[28] + 9 r[29] + 1.2 r[30] + 8.6 r[31] + 5 r[32] + 1.2 r[33]
   + 3.5 r[34] + 7.2 r[35] + 7.1 r[36] + 7.5 r[37] + 1.1 r[38] + 6.9 r[39]
   + 5.4 r[40] + 1.2 r[41] + 5.3 r[42] + 1.2 r[43] + 2.6 r[44] + 8.1 r[45]
   + 10 r[46] + 10 r[47] + 3 r[48] + 3.9 r[49] + 2.5 r[50] + 9.9 r[51]
   + 4.8 r[52] + 3.5 r[53] + 4.3 r[54] + r[55] + 8.4 r[56] + 3.7 r[57]
   + 1.9 r[58] + 5.3 r[59] + 0.3 r[60] + 0.9 r[61] + 5.8 r[62] + 0.1 r[63]
   + 6.2 r[64] + 0.3 r[65] + 0.7 r[66] + 4.5 r[67] + 8.7 r[68] + 5.6 r[69]
   + 5.6 r[70] + 4 r[71] + 9.3 r[72] + 7.4 r[73] + 5.8 r[74] + 2.3 r[75]
   + 8.1 r[76] + 4.6 r[77] + 2.3 r[78] + 1.3 r[79] + 9.2 r[80] + 5.2 r[81]
   + 3.3 r[82] + 0.4 r[83] + 9.6 r[84] + 7.2 r[85] + 6.2 r[86] + 5.5 r[87]
   + 4.1 r[88] + 7 r[89] + 8.7 r[90] + 5.1 r[91] + 5.1 r[92] + 7.8 r[93]
   + 7.5 r[94] + 10 r[95] + 4.4 r[96] + 2.3 r[97] + 6.7 r[98] + 3.5 r[99]
   + 5.2 r[100] + 1.1 r[101] + 1.7 r[102] + 4.7 r[103] + 2 r[104]
   + 2.9 r[105] + 4.6 r[106] + 3.7 r[107] + 6.9 r[108] + 4 r[109]
   + 3.7 r[110] + 6.2 r[111] + 3.2 r[112] + 6 r[113] + 6.4 r[114]
   + 2.9 r[115] + 6.2 r[116] + 8.4 r[117] + 1.6 r[118] + 7.1 r[119]
   + 4.2 r[120] + 5.5 r[121] + 6.6 r[122] + 3.7 r[123] + 0.4 r[124]
   + 3.3 r[125] + r[126] + r[127] + 6.5 r[128] + 9.8 r[129] <= 615
 primal_lower: 1.278446691863935 x[0] + 1.855915801990749 x[1]
   + 0.0810597013851218 x[2] + 0.9673878146791545 x[3]
   + 0.432117750109477 x[4] + 0.2108206643178438 x[5]
   + 3.685749747815725 x[6] + 4.126761347609785 x[7]
   + 0.5007095149534389 x[8] + 4.691540921924618 x[9]
   + 4.652018356683874 x[10] + 1.86181432441108 x[11]
   + 4.359970569662299 x[12] + 3.880735493132348 x[13]
   + 0.9347944270362207 x[14] + 1.978312466894759 x[15]
   + 4.859800813759529 x[16] + 2.406453838036635 x[17]
   + 2.739243292265492 x[18] + 0.8574520966034952 x[19]
   + 4.554958231763408 x[20] + 4.542534286668102 x[21]
   + 1.101005470405696 x[22] + 0.017044453918081 x[23]
   + 3.24893493211845 x[24] + 1.757119018672134 x[25]
   + 0.3913617978726975 x[26] + 0.8895127414998386 x[27]
   + 1.427235392260519 x[28] + 4.514003629229026 x[29]
   + 2.91746450510512 x[30] + 1.097515531484612 x[31]
   + 3.691142902381214 x[32] + 2.197821893206672 x[33]
   + 2.275171067132276 x[34] + 3.982961461589718 x[35]
   + 3.743882960859682 x[36] + 2.769932568045391 x[37]
   + 0.9881252652573966 x[38] + 3.859334875094826 x[39]
   + 1.060367428988239 x[40] + 0.8853128413569923 x[41]
   + 4.398001283206709 x[42] + 2.04467245995835 x[43]
   + 1.448775430901608 x[44] + 0.8018977680593542 x[45]
   + 0.1913952217970037 x[46] + 4.862279547471183 x[47]
   + 2.278009859369495 x[48] + 3.235486966671805 x[49]
   + 4.097232278303329 x[50] + 1.731699568724115 x[51]
   + 3.158479573097353 x[52] + 3.617623789748156 x[53]
   + 0.3006802296884846 x[54] + 3.716718648609844 x[55]
   + 0.1717322204037107 x[56] + 2.247527147957559 x[57]
   + 0.9066584596006921 x[58] + 3.28019157872013 x[59]
   + 2.441186915952728 x[60] + 2.328810521418684 x[61]
   + 1.467799933594193 x[62] + 3.252836741082808 x[63]
   + 1.124577256625905 x[64] + 3.408317173129573 x[65]
   + 2.158971278540808 x[66] + 3.904182123664733 x[67]
   + 1.3981753702938 x[68] + 3.484348694629819 x[69]
   + 1.822522949917162 x[70] + 4.367023153191934 x[71]
   + 0.4739002573229925 x[72] + 3.891798741341666 x[73]
   + 4.239020720030036 x[74] + 3.154960784996661 x[75]
   + 1.611494962758648 x[76] + 3.562853729390609 x[77]
   + 3.984258979302504 x[78] + 0.857421937536382 x[79]
   + 0.3386885672945018 x[80] + 1.652075773525574 x[81]
   + 4.685837796673836 x[82] + 0.4009567268888006 x[83]
   + 1.646888938275398 x[84] + 3.487066390589805 x[85]
   + 1.648621486793742 x[86] + 2.52679275581949 x[87]
   + 0.6090161596229499 x[88] + 3.923913985023254 x[89]
   + 0.1527241664745472 x[90] + 0.4778922771164509 x[91]
   + 2.94026670989257 x[92] + 4.261006889523604 x[93]
   + 3.102074063464501 x[94] + 3.117471670895493 x[95]
   + 3.741327931500543 x[96] + 0.5556726679934533 x[97]
   + 1.408344639701748 x[98] + 4.730777221171399 x[99]
   + 4.040305691534439 x[100] + 2.416260048845381 x[101]
   + 1.205073135224488 x[102] + 2.770629813756222 x[103]
   + 1.106099810582164 x[104] + 0.6929293675703808 x[105]
   + 2.776447335974985 x[106] + 4.45031939250657 x[107]
   + 1.26849267256897 x[108] + 4.626674011560818 x[109]
   + 4.503427928966668 x[110] + 2.157282612725681 x[111]
   + 4.020294072508149 x[112] + 0.0986565820302461 x[113]
   + 1.118139745206719 x[114] + 4.587718918826875 x[115]
   + 2.797552399435407 x[116] + 2.448371723609557 x[117]
   + 4.058834657568351 x[118] + 0.2910599020162081 x[119]
   + 1.711931238345741 x[120] + 4.844023581237384 x[121]
   + 2.889234138150065 x[122] + 2.276369577005847 x[123]
   + 4.155553974141888 x[124] + 2.962705291941367 x[125]
   + 0.7507419641374885 x[126] + 4.880699922973474 x[127]
   + 0.3966817121290955 x[128] + 2.893845918873749 x[129] + 29 u[0]
   + 66 u[1] + 12 u[2] + 61 u[3] + 38 u[4] + 31 u[5] + 11 u[6] + 41 u[7]
   + 51 u[8] + 68 u[9] + 45 u[10] + 97 u[11] + 62 u[12] + 98 u[13]
   + 42 u[14] + 74 u[15] + 99 u[16] + 10 u[17] + 91 u[18] + 36 u[19]
   + 67 u[20] + 97 u[21] + 78 u[22] + 96 u[23] + 50 u[24] + 70 u[25]
   + 8 u[26] + 93 u[27] + 83 u[28] + 9 u[29] + 35 u[30] + 85 u[31]
   + 53 u[32] + 3 u[33] + 2 u[34] + 83 u[35] + 42 u[36] + 50 u[37]
   + 98 u[38] + 100 u[39] + 5 u[40] + 75 u[41] + 64 u[42] + 31 u[43]
   + 81 u[44] + 68 u[45] + 55 u[46] + 59 u[47] + 65 u[48] + 42 u[49]
   + 80 u[50] + 38 u[51] + 75 u[52] + 2 u[53] + 90 u[54] + u[55] + 91 u[56]
   + 84 u[57] + 38 u[58] + 88 u[59] + 54 u[60] + 16 u[61] + 17 u[62]
   + 64 u[63] + 17 u[64] + 78 u[65] + 14 u[66] + 32 u[67] + 46 u[68]
   + 31 u[69] + 63 u[70] + 79 u[71] + 44 u[72] + 97 u[73] + 93 u[74]
   + 26 u[75] + 84 u[76] + 33 u[77] + 6 u[78] + 80 u[79] + 7 u[80]
   + 63 u[81] + 56 u[82] + 19 u[83] + 15 u[84] + 35 u[85] + 69 u[86]
   + 82 u[87] + 100 u[88] + 97 u[89] + 82 u[90] + 22 u[91] + 70 u[92]
   + 5 u[93] + 22 u[94] + 7 u[95] + 23 u[96] + 26 u[97] + 14 u[98]
   + 26 u[99] + 87 u[100] + 34 u[101] + 92 u[102] + 22 u[103] + 11 u[104]
   + 20 u[105] + 45 u[106] + 60 u[107] + 44 u[108] + 39 u[109] + 12 u[110]
   + 57 u[111] + 67 u[112] + 43 u[113] + 87 u[114] + 60 u[115] + 53 u[116]
   + 75 u[117] + 87 u[118] + 98 u[119] + 45 u[120] + 34 u[121] + 57 u[122]
   + 8 u[123] + 75 u[124] + 76 u[125] + 65 u[126] + 13 u[127] + 40 u[128]
   + 49 u[129] <= 22809
 mccormick1[0]: - u[0] + r[0] <= 0
 mccormick1[1]: - u[1] + r[1] <= 0
 mccormick1[2]: - u[2] + r[2] <= 0
 mccormick1[3]: - u[3] + r[3] <= 0
 mccormick1[4]: - u[4] + r[4] <= 0
 mccormick1[5]: - u[5] + r[5] <= 0
 mccormick1[6]: - u[6] + r[6] <= 0
 mccormick1[7]: - u[7] + r[7] <= 0
 mccormick1[8]: - u[8] + r[8] <= 0
 mccormick1[9]: - u[9] + r[9] <= 0
 mccormick1[10]: - u[10] + r[10] <= 0
 mccormick1[11]: - u[11] + r[11] <= 0
 mccormick1[12]: - u[12] + r[12] <= 0
 mccormick1[13]: - u[13] + r[13] <= 0
 mccormick1[14]: - u[14] + r[14] <= 0
 mccormick1[15]: - u[15] + r[15] <= 0
 mccormick1[16]: - u[16] + r[16] <= 0
 mccormick1[17]: - u[17] + r[17] <= 0
 mccormick1[18]: - u[18] + r[18] <= 0
 mccormick1[19]: - u[19] + r[19] <= 0
 mccormick1[20]: - u[20] + r[20] <= 0
 mccormick1[21]: - u[21] + r[21] <= 0
 mccormick1[22]: - u[22] + r[22] <= 0
 mccormick1[23]: - u[23] + r[23] <= 0
 mccormick1[24]: - u[24] + r[24] <= 0
 mccormick1[25]: - u[25] + r[25] <= 0
 mccormick1[26]: - u[26] + r[26] <= 0
 mccormick1[27]: - u[27] + r[27] <= 0
 mccormick1[28]: - u[28] + r[28] <= 0
 mccormick1[29]: - u[29] + r[29] <= 0
 mccormick1[30]: - u[30] + r[30] <= 0
 mccormick1[31]: - u[31] + r[31] <= 0
 mccormick1[32]: - u[32] + r[32] <= 0
 mccormick1[33]: - u[33] + r[33] <= 0
 mccormick1[34]: - u[34] + r[34] <= 0
 mccormick1[35]: - u[35] + r[35] <= 0
 mccormick1[36]: - u[36] + r[36] <= 0
 mccormick1[37]: - u[37] + r[37] <= 0
 mccormick1[38]: - u[38] + r[38] <= 0
 mccormick1[39]: - u[39] + r[39] <= 0
 mccormick1[40]: - u[40] + r[40] <= 0
 mccormick1[41]: - u[41] + r[41] <= 0
 mccormick1[42]: - u[42] + r[42] <= 0
 mccormick1[43]: - u[43] + r[43] <= 0
 mccormick1[44]: - u[44] + r[44] <= 0
 mccormick1[45]: - u[45] + r[45] <= 0
 mccormick1[46]: - u[46] + r[46] <= 0
 mccormick1[47]: - u[47] + r[47] <= 0
 mccormick1[48]: - u[48] + r[48] <= 0
 mccormick1[49]: - u[49] + r[49] <= 0
 mccormick1[50]: - u[50] + r[50] <= 0
 mccormick1[51]: - u[51] + r[51] <= 0
 mccormick1[52]: - u[52] + r[52] <= 0
 mccormick1[53]: - u[53] + r[53] <= 0
 mccormick1[54]: - u[54] + r[54] <= 0
 mccormick1[55]: - u[55] + r[55] <= 0
 mccormick1[56]: - u[56] + r[56] <= 0
 mccormick1[57]: - u[57] + r[57] <= 0
 mccormick1[58]: - u[58] + r[58] <= 0
 mccormick1[59]: - u[59] + r[59] <= 0
 mccormick1[60]: - u[60] + r[60] <= 0
 mccormick1[61]: - u[61] + r[61] <= 0
 mccormick1[62]: - u[62] + r[62] <= 0
 mccormick1[63]: - u[63] + r[63] <= 0
 mccormick1[64]: - u[64] + r[64] <= 0
 mccormick1[65]: - u[65] + r[65] <= 0
 mccormick1[66]: - u[66] + r[66] <= 0
 mccormick1[67]: - u[67] + r[67] <= 0
 mccormick1[68]: - u[68] + r[68] <= 0
 mccormick1[69]: - u[69] + r[69] <= 0
 mccormick1[70]: - u[70] + r[70] <= 0
 mccormick1[71]: - u[71] + r[71] <= 0
 mccormick1[72]: - u[72] + r[72] <= 0
 mccormick1[73]: - u[73] + r[73] <= 0
 mccormick1[74]: - u[74] + r[74] <= 0
 mccormick1[75]: - u[75] + r[75] <= 0
 mccormick1[76]: - u[76] + r[76] <= 0
 mccormick1[77]: - u[77] + r[77] <= 0
 mccormick1[78]: - u[78] + r[78] <= 0
 mccormick1[79]: - u[79] + r[79] <= 0
 mccormick1[80]: - u[80] + r[80] <= 0
 mccormick1[81]: - u[81] + r[81] <= 0
 mccormick1[82]: - u[82] + r[82] <= 0
 mccormick1[83]: - u[83] + r[83] <= 0
 mccormick1[84]: - u[84] + r[84] <= 0
 mccormick1[85]: - u[85] + r[85] <= 0
 mccormick1[86]: - u[86] + r[86] <= 0
 mccormick1[87]: - u[87] + r[87] <= 0
 mccormick1[88]: - u[88] + r[88] <= 0
 mccormick1[89]: - u[89] + r[89] <= 0
 mccormick1[90]: - u[90] + r[90] <= 0
 mccormick1[91]: - u[91] + r[91] <= 0
 mccormick1[92]: - u[92] + r[92] <= 0
 mccormick1[93]: - u[93] + r[93] <= 0
 mccormick1[94]: - u[94] + r[94] <= 0
 mccormick1[95]: - u[95] + r[95] <= 0
 mccormick1[96]: - u[96] + r[96] <= 0
 mccormick1[97]: - u[97] + r[97] <= 0
 mccormick1[98]: - u[98] + r[98] <= 0
 mccormick1[99]: - u[99] + r[99] <= 0
 mccormick1[100]: - u[100] + r[100] <= 0
 mccormick1[101]: - u[101] + r[101] <= 0
 mccormick1[102]: - u[102] + r[102] <= 0
 mccormick1[103]: - u[103] + r[103] <= 0
 mccormick1[104]: - u[104] + r[104] <= 0
 mccormick1[105]: - u[105] + r[105] <= 0
 mccormick1[106]: - u[106] + r[106] <= 0
 mccormick1[107]: - u[107] + r[107] <= 0
 mccormick1[108]: - u[108] + r[108] <= 0
 mccormick1[109]: - u[109] + r[109] <= 0
 mccormick1[110]: - u[110] + r[110] <= 0
 mccormick1[111]: - u[111] + r[111] <= 0
 mccormick1[112]: - u[112] + r[112] <= 0
 mccormick1[113]: - u[113] + r[113] <= 0
 mccormick1[114]: - u[114] + r[114] <= 0
 mccormick1[115]: - u[115] + r[115] <= 0
 mccormick1[116]: - u[116] + r[116] <= 0
 mccormick1[117]: - u[117] + r[117] <= 0
 mccormick1[118]: - u[118] + r[118] <= 0
 mccormick1[119]: - u[119] + r[119] <= 0
 mccormick1[120]: - u[120] + r[120] <= 0
 mccormick1[121]: - u[121] + r[121] <= 0
 mccormick1[122]: - u[122] + r[122] <= 0
 mccormick1[123]: - u[123] + r[123] <= 0
 mccormick1[124]: - u[124] + r[124] <= 0
 mccormick1[125]: - u[125] + r[125] <= 0
 mccormick1[126]: - u[126] + r[126] <= 0
 mccormick1[127]: - u[127] + r[127] <= 0
 mccormick1[128]: - u[128] + r[128] <= 0
 mccormick1[129]: - u[129] + r[129] <= 0
 mccormick2[0]: - x[0] + r[0] <= 0
 mccormick2[1]: - x[1] + r[1] <= 0
 mccormick2[2]: - x[2] + r[2] <= 0
 mccormick2[3]: - x[3] + r[3] <= 0
 mccormick2[4]: - x[4] + r[4] <= 0
 mccormick2[5]: - x[5] + r[5] <= 0
 mccormick2[6]: - x[6] + r[6] <= 0
 mccormick2[7]: - x[7] + r[7] <= 0
 mccormick2[8]: - x[8] + r[8] <= 0
 mccormick2[9]: - x[9] + r[9] <= 0
 mccormick2[10]: - x[10] + r[10] <= 0
 mccormick2[11]: - x[11] + r[11] <= 0
 mccormick2[12]: - x[12] + r[12] <= 0
 mccormick2[13]: - x[13] + r[13] <= 0
 mccormick2[14]: - x[14] + r[14] <= 0
 mccormick2[15]: - x[15] + r[15] <= 0
 mccormick2[16]: - x[16] + r[16] <= 0
 mccormick2[17]: - x[17] + r[17] <= 0
 mccormick2[18]: - x[18] + r[18] <= 0
 mccormick2[19]: - x[19] + r[19] <= 0
 mccormick2[20]: - x[20] + r[20] <= 0
 mccormick2[21]: - x[21] + r[21] <= 0
 mccormick2[22]: - x[22] + r[22] <= 0
 mccormick2[23]: - x[23] + r[23] <= 0
 mccormick2[24]: - x[24] + r[24] <= 0
 mccormick2[25]: - x[25] + r[25] <= 0
 mccormick2[26]: - x[26] + r[26] <= 0
 mccormick2[27]: - x[27] + r[27] <= 0
 mccormick2[28]: - x[28] + r[28] <= 0
 mccormick2[29]: - x[29] + r[29] <= 0
 mccormick2[30]: - x[30] + r[30] <= 0
 mccormick2[31]: - x[31] + r[31] <= 0
 mccormick2[32]: - x[32] + r[32] <= 0
 mccormick2[33]: - x[33] + r[33] <= 0
 mccormick2[34]: - x[34] + r[34] <= 0
 mccormick2[35]: - x[35] + r[35] <= 0
 mccormick2[36]: - x[36] + r[36] <= 0
 mccormick2[37]: - x[37] + r[37] <= 0
 mccormick2[38]: - x[38] + r[38] <= 0
 mccormick2[39]: - x[39] + r[39] <= 0
 mccormick2[40]: - x[40] + r[40] <= 0
 mccormick2[41]: - x[41] + r[41] <= 0
 mccormick2[42]: - x[42] + r[42] <= 0
 mccormick2[43]: - x[43] + r[43] <= 0
 mccormick2[44]: - x[44] + r[44] <= 0
 mccormick2[45]: - x[45] + r[45] <= 0
 mccormick2[46]: - x[46] + r[46] <= 0
 mccormick2[47]: - x[47] + r[47] <= 0
 mccormick2[48]: - x[48] + r[48] <= 0
 mccormick2[49]: - x[49] + r[49] <= 0
 mccormick2[50]: - x[50] + r[50] <= 0
 mccormick2[51]: - x[51] + r[51] <= 0
 mccormick2[52]: - x[52] + r[52] <= 0
 mccormick2[53]: - x[53] + r[53] <= 0
 mccormick2[54]: - x[54] + r[54] <= 0
 mccormick2[55]: - x[55] + r[55] <= 0
 mccormick2[56]: - x[56] + r[56] <= 0
 mccormick2[57]: - x[57] + r[57] <= 0
 mccormick2[58]: - x[58] + r[58] <= 0
 mccormick2[59]: - x[59] + r[59] <= 0
 mccormick2[60]: - x[60] + r[60] <= 0
 mccormick2[61]: - x[61] + r[61] <= 0
 mccormick2[62]: - x[62] + r[62] <= 0
 mccormick2[63]: - x[63] + r[63] <= 0
 mccormick2[64]: - x[64] + r[64] <= 0
 mccormick2[65]: - x[65] + r[65] <= 0
 mccormick2[66]: - x[66] + r[66] <= 0
 mccormick2[67]: - x[67] + r[67] <= 0
 mccormick2[68]: - x[68] + r[68] <= 0
 mccormick2[69]: - x[69] + r[69] <= 0
 mccormick2[70]: - x[70] + r[70] <= 0
 mccormick2[71]: - x[71] + r[71] <= 0
 mccormick2[72]: - x[72] + r[72] <= 0
 mccormick2[73]: - x[73] + r[73] <= 0
 mccormick2[74]: - x[74] + r[74] <= 0
 mccormick2[75]: - x[75] + r[75] <= 0
 mccormick2[76]: - x[76] + r[76] <= 0
 mccormick2[77]: - x[77] + r[77] <= 0
 mccormick2[78]: - x[78] + r[78] <= 0
 mccormick2[79]: - x[79] + r[79] <= 0
 mccormick2[80]: - x[80] + r[80] <= 0
 mccormick2[81]: - x[81] + r[81] <= 0
 mccormick2[82]: - x[82] + r[82] <= 0
 mccormick2[83]: - x[83] + r[83] <= 0
 mccormick2[84]: - x[84] + r[84] <= 0
 mccormick2[85]: - x[85] + r[85] <= 0
 mccormick2[86]: - x[86] + r[86] <= 0
 mccormick2[87]: - x[87] + r[87] <= 0
 mccormick2[88]: - x[88] + r[88] <= 0
 mccormick2[89]: - x[89] + r[89] <= 0
 mccormick2[90]: - x[90] + r[90] <= 0
 mccormick2[91]: - x[91] + r[91] <= 0
 mccormick2[92]: - x[92] + r[92] <= 0
 mccormick2[93]: - x[93] + r[93] <= 0
 mccormick2[94]: - x[94] + r[94] <= 0
 mccormick2[95]: - x[95] + r[95] <= 0
 mccormick2[96]: - x[96] + r[96] <= 0
 mccormick2[97]: - x[97] + r[97] <= 0
 mccormick2[98]: - x[98] + r[98] <= 0
 mccormick2[99]: - x[99] + r[99] <= 0
 mccormick2[100]: - x[100] + r[100] <= 0
 mccormick2[101]: - x[101] + r[101] <= 0
 mccormick2[102]: - x[102] + r[102] <= 0
 mccormick2[103]: - x[103] + r[103] <= 0
 mccormick2[104]: - x[104] + r[104] <= 0
 mccormick2[105]: - x[105] + r[105] <= 0
 mccormick2[106]: - x[106] + r[106] <= 0
 mccormick2[107]: - x[107] + r[107] <= 0
 mccormick2[108]: - x[108] + r[108] <= 0
 mccormick2[109]: - x[109] + r[109] <= 0
 mccormick2[110]: - x[110] + r[110] <= 0
 mccormick2[111]: - x[111] + r[111] <= 0
 mccormick2[112]: - x[112] + r[112] <= 0
 mccormick2[113]: - x[113] + r[113] <= 0
 mccormick2[114]: - x[114] + r[114] <= 0
 mccormick2[115]: - x[115] + r[115] <= 0
 mccormick2[116]: - x[116] + r[116] <= 0
 mccormick2[117]: - x[117] + r[117] <= 0
 mccormick2[118]: - x[118] + r[118] <= 0
 mccormick2[119]: - x[119] + r[119] <= 0
 mccormick2[120]: - x[120] + r[120] <= 0
 mccormick2[121]: - x[121] + r[121] <= 0
 mccormick2[122]: - x[122] + r[122] <= 0
 mccormick2[123]: - x[123] + r[123] <= 0
 mccormick2[124]: - x[124] + r[124] <= 0
 mccormick2[125]: - x[125] + r[125] <= 0
 mccormick2[126]: - x[126] + r[126] <= 0
 mccormick2[127]: - x[127] + r[127] <= 0
 mccormick2[128]: - x[128] + r[128] <= 0
 mccormick2[129]: - x[129] + r[129] <= 0
 mccormick3[0]: x[0] + u[0] - r[0] <= 1
 mccormick3[1]: x[1] + u[1] - r[1] <= 1
 mccormick3[2]: x[2] + u[2] - r[2] <= 1
 mccormick3[3]: x[3] + u[3] - r[3] <= 1
 mccormick3[4]: x[4] + u[4] - r[4] <= 1
 mccormick3[5]: x[5] + u[5] - r[5] <= 1
 mccormick3[6]: x[6] + u[6] - r[6] <= 1
 mccormick3[7]: x[7] + u[7] - r[7] <= 1
 mccormick3[8]: x[8] + u[8] - r[8] <= 1
 mccormick3[9]: x[9] + u[9] - r[9] <= 1
 mccormick3[10]: x[10] + u[10] - r[10] <= 1
 mccormick3[11]: x[11] + u[11] - r[11] <= 1
 mccormick3[12]: x[12] + u[12] - r[12] <= 1
 mccormick3[13]: x[13] + u[13] - r[13] <= 1
 mccormick3[14]: x[14] + u[14] - r[14] <= 1
 mccormick3[15]: x[15] + u[15] - r[15] <= 1
 mccormick3[16]: x[16] + u[16] - r[16] <= 1
 mccormick3[17]: x[17] + u[17] - r[17] <= 1
 mccormick3[18]: x[18] + u[18] - r[18] <= 1
 mccormick3[19]: x[19] + u[19] - r[19] <= 1
 mccormick3[20]: x[20] + u[20] - r[20] <= 1
 mccormick3[21]: x[21] + u[21] - r[21] <= 1
 mccormick3[22]: x[22] + u[22] - r[22] <= 1
 mccormick3[23]: x[23] + u[23] - r[23] <= 1
 mccormick3[24]: x[24] + u[24] - r[24] <= 1
 mccormick3[25]: x[25] + u[25] - r[25] <= 1
 mccormick3[26]: x[26] + u[26] - r[26] <= 1
 mccormick3[27]: x[27] + u[27] - r[27] <= 1
 mccormick3[28]: x[28] + u[28] - r[28] <= 1
 mccormick3[29]: x[29] + u[29] - r[29] <= 1
 mccormick3[30]: x[30] + u[30] - r[30] <= 1
 mccormick3[31]: x[31] + u[31] - r[31] <= 1
 mccormick3[32]: x[32] + u[32] - r[32] <= 1
 mccormick3[33]: x[33] + u[33] - r[33] <= 1
 mccormick3[34]: x[34] + u[34] - r[34] <= 1
 mccormick3[35]: x[35] + u[35] - r[35] <= 1
 mccormick3[36]: x[36] + u[36] - r[36] <= 1
 mccormick3[37]: x[37] + u[37] - r[37] <= 1
 mccormick3[38]: x[38] + u[38] - r[38] <= 1
 mccormick3[39]: x[39] + u[39] - r[39] <= 1
 mccormick3[40]: x[40] + u[40] - r[40] <= 1
 mccormick3[41]: x[41] + u[41] - r[41] <= 1
 mccormick3[42]: x[42] + u[42] - r[42] <= 1
 mccormick3[43]: x[43] + u[43] - r[43] <= 1
 mccormick3[44]: x[44] + u[44] - r[44] <= 1
 mccormick3[45]: x[45] + u[45] - r[45] <= 1
 mccormick3[46]: x[46] + u[46] - r[46] <= 1
 mccormick3[47]: x[47] + u[47] - r[47] <= 1
 mccormick3[48]: x[48] + u[48] - r[48] <= 1
 mccormick3[49]: x[49] + u[49] - r[49] <= 1
 mccormick3[50]: x[50] + u[50] - r[50] <= 1
 mccormick3[51]: x[51] + u[51] - r[51] <= 1
 mccormick3[52]: x[52] + u[52] - r[52] <= 1
 mccormick3[53]: x[53] + u[53] - r[53] <= 1
 mccormick3[54]: x[54] + u[54] - r[54] <= 1
 mccormick3[55]: x[55] + u[55] - r[55] <= 1
 mccormick3[56]: x[56] + u[56] - r[56] <= 1
 mccormick3[57]: x[57] + u[57] - r[57] <= 1
 mccormick3[58]: x[58] + u[58] - r[58] <= 1
 mccormick3[59]: x[59] + u[59] - r[59] <= 1
 mccormick3[60]: x[60] + u[60] - r[60] <= 1
 mccormick3[61]: x[61] + u[61] - r[61] <= 1
 mccormick3[62]: x[62] + u[62] - r[62] <= 1
 mccormick3[63]: x[63] + u[63] - r[63] <= 1
 mccormick3[64]: x[64] + u[64] - r[64] <= 1
 mccormick3[65]: x[65] + u[65] - r[65] <= 1
 mccormick3[66]: x[66] + u[66] - r[66] <= 1
 mccormick3[67]: x[67] + u[67] - r[67] <= 1
 mccormick3[68]: x[68] + u[68] - r[68] <= 1
 mccormick3[69]: x[69] + u[69] - r[69] <= 1
 mccormick3[70]: x[70] + u[70] - r[70] <= 1
 mccormick3[71]: x[71] + u[71] - r[71] <= 1
 mccormick3[72]: x[72] + u[72] - r[72] <= 1
 mccormick3[73]: x[73] + u[73] - r[73] <= 1
 mccormick3[74]: x[74] + u[74] - r[74] <= 1
 mccormick3[75]: x[75] + u[75] - r[75] <= 1
 mccormick3[76]: x[76] + u[76] - r[76] <= 1
 mccormick3[77]: x[77] + u[77] - r[77] <= 1
 mccormick3[78]: x[78] + u[78] - r[78] <= 1
 mccormick3[79]: x[79] + u[79] - r[79] <= 1
 mccormick3[80]: x[80] + u[80] - r[80] <= 1
 mccormick3[81]: x[81] + u[81] - r[81] <= 1
 mccormick3[82]: x[82] + u[82] - r[82] <= 1
 mccormick3[83]: x[83] + u[83] - r[83] <= 1
 mccormick3[84]: x[84] + u[84] - r[84] <= 1
 mccormick3[85]: x[85] + u[85] - r[85] <= 1
 mccormick3[86]: x[86] + u[86] - r[86] <= 1
 mccormick3[87]: x[87] + u[87] - r[87] <= 1
 mccormick3[88]: x[88] + u[88] - r[88] <= 1
 mccormick3[89]: x[89] + u[89] - r[89] <= 1
 mccormick3[90]: x[90] + u[90] - r[90] <= 1
 mccormick3[91]: x[91] + u[91] - r[91] <= 1
 mccormick3[92]: x[92] + u[92] - r[92] <= 1
 mccormick3[93]: x[93] + u[93] - r[93] <= 1
 mccormick3[94]: x[94] + u[94] - r[94] <= 1
 mccormick3[95]: x[95] + u[95] - r[95] <= 1
 mccormick3[96]: x[96] + u[96] - r[96] <= 1
 mccormick3[97]: x[97] + u[97] - r[97] <= 1
 mccormick3[98]: x[98] + u[98] - r[98] <= 1
 mccormick3[99]: x[99] + u[99] - r[99] <= 1
 mccormick3[100]: x[100] + u[100] - r[100] <= 1
 mccormick3[101]: x[101] + u[101] - r[101] <= 1
 mccormick3[102]: x[102] + u[102] - r[102] <= 1
 mccormick3[103]: x[103] + u[103] - r[103] <= 1
 mccormick3[104]: x[104] + u[104] - r[104] <= 1
 mccormick3[105]: x[105] + u[105] - r[105] <= 1
 mccormick3[106]: x[106] + u[106] - r[106] <= 1
 mccormick3[107]: x[107] + u[107] - r[107] <= 1
 mccormick3[108]: x[108] + u[108] - r[108] <= 1
 mccormick3[109]: x[109] + u[109] - r[109] <= 1
 mccormick3[110]: x[110] + u[110] - r[110] <= 1
 mccormick3[111]: x[111] + u[111] - r[111] <= 1
 mccormick3[112]: x[112] + u[112] - r[112] <= 1
 mccormick3[113]: x[113] + u[113] - r[113] <= 1
 mccormick3[114]: x[114] + u[114] - r[114] <= 1
 mccormick3[115]: x[115] + u[115] - r[115] <= 1
 mccormick3[116]: x[116] + u[116] - r[116] <= 1
 mccormick3[117]: x[117] + u[117] - r[117] <= 1
 mccormick3[118]: x[118] + u[118] - r[118] <= 1
 mccormick3[119]: x[119] + u[119] - r[119] <= 1
 mccormick3[120]: x[120] + u[120] - r[120] <= 1
 mccormick3[121]: x[121] + u[121] - r[121] <= 1
 mccormick3[122]: x[122] + u[122] - r[122] <= 1
 mccormick3[123]: x[123] + u[123] - r[123] <= 1
 mccormick3[124]: x[124] + u[124] - r[124] <= 1
 mccormick3[125]: x[125] + u[125] - r[125] <= 1
 mccormick3[126]: x[126] + u[126] - r[126] <= 1
 mccormick3[127]: x[127] + u[127] - r[127] <= 1
 mccormick3[128]: x[128] + u[128] - r[128] <= 1
 mccormick3[129]: x[129] + u[129] - r[129] <= 1
Bounds
Binaries
 x[0] x[1] x[2] x[3] x[4] x[5] x[6] x[7] x[8] x[9] x[10] x[11] x[12] x[13]
 x[14] x[15] x[16] x[17] x[18] x[19] x[20] x[21] x[22] x[23] x[24] x[25]
 x[26] x[27] x[28] x[29] x[30] x[31] x[32] x[33] x[34] x[35] x[36] x[37]
 x[38] x[39] x[40] x[41] x[42] x[43] x[44] x[45] x[46] x[47] x[48] x[49]
 x[50] x[51] x[52] x[53] x[54] x[55] x[56] x[57] x[58] x[59] x[60] x[61]
 x[62] x[63] x[64] x[65] x[66] x[67] x[68] x[69] x[70] x[71] x[72] x[73]
 x[74] x[75] x[76] x[77] x[78] x[79] x[80] x[81] x[82] x[83] x[84] x[85]
 x[86] x[87] x[88] x[89] x[90] x[91] x[92] x[93] x[94] x[95] x[96] x[97]
 x[98] x[99] x[100] x[101] x[102] x[103] x[104] x[105] x[106] x[107] x[108]
 x[109] x[110] x[111] x[112] x[113] x[114] x[115] x[116] x[117] x[118]
 x[119] x[120] x[121] x[122] x[123] x[124] x[125] x[126] x[127] x[128]
 x[129] u[0] u[1] u[2] u[3] u[4] u[5] u[6] u[7] u[8] u[9] u[10] u[11] u[12]
 u[13] u[14] u[15] u[16] u[17] u[18] u[19] u[20] u[21] u[22] u[23] u[24]
 u[25] u[26] u[27] u[28] u[29] u[30] u[31] u[32] u[33] u[34] u[35] u[36]
 u[37] u[38] u[39] u[40] u[41] u[42] u[43] u[44] u[45] u[46] u[47] u[48]
 u[49] u[50] u[51] u[52] u[53] u[54] u[55] u[56] u[57] u[58] u[59] u[60]
 u[61] u[62] u[63] u[64] u[65] u[66] u[67] u[68] u[69] u[70] u[71] u[72]
 u[73] u[74] u[75] u[76] u[77] u[78] u[79] u[80] u[81] u[82] u[83] u[84]
 u[85] u[86] u[87] u[88] u[89] u[90] u[91] u[92] u[93] u[94] u[95] u[96]
 u[97] u[98] u[99] u[100] u[101] u[102] u[103] u[104] u[105] u[106] u[107]
 u[108] u[109] u[110] u[111] u[112] u[113] u[114] u[115] u[116] u[117]
 u[118] u[119] u[120] u[121] u[122] u[123] u[124] u[125] u[126] u[127]
 u[128] u[129] r[0] r[1] r[2] r[3] r[4] r[5] r[6] r[7] r[8] r[9] r[10]
 r[11] r[12] r[13] r[14] r[15] r[16] r[17] r[18] r[19] r[20] r[21] r[22]
 r[23] r[24] r[25] r[26] r[27] r[28] r[29] r[30] r[31] r[32] r[33] r[34]
 r[35] r[36] r[37] r[38] r[39] r[40] r[41] r[42] r[43] r[44] r[45] r[46]
 r[47] r[48] r[49] r[50] r[51] r[52] r[53] r[54] r[55] r[56] r[57] r[58]
 r[59] r[60] r[61] r[62] r[63] r[64] r[65] r[66] r[67] r[68] r[69] r[70]
 r[71] r[72] r[73] r[74] r[75] r[76] r[77] r[78] r[79] r[80] r[81] r[82]
 r[83] r[84] r[85] r[86] r[87] r[88] r[89] r[90] r[91] r[92] r[93] r[94]
 r[95] r[96] r[97] r[98] r[99] r[100] r[101] r[102] r[103] r[104] r[105]
 r[106] r[107] r[108] r[109] r[110] r[111] r[112] r[113] r[114] r[115]
 r[116] r[117] r[118] r[119] r[120] r[121] r[122] r[123] r[124] r[125]
 r[126] r[127] r[128] r[129]
End
