instances/knapsack/discrete_knapsack_uncertainty/knapsack_130_12.kp
72971
130
615

26 2.6 43
91 9.1 43
73 7.3 49
90 9.0 13
59 5.9 30
20 2.0 54
84 8.4 78
42 4.2 68
36 3.6 19
61 6.1 15
90 9.0 68
34 3.4 24
31 3.1 44
79 7.9 27
55 5.5 48
87 8.7 9
24 2.4 99
55 5.5 75
60 6.0 7
89 8.9 98
60 6.0 6
18 1.8 80
39 3.9 5
81 8.1 45
43 4.3 46
35 3.5 11
57 5.7 1
6 0.6 52
60 6.0 31
90 9.0 73
12 1.2 98
86 8.6 81
50 5.0 81
12 1.2 4
35 3.5 4
72 7.2 34
71 7.1 78
75 7.5 88
11 1.1 47
69 6.9 52
54 5.4 69
12 1.2 54
53 5.3 46
12 1.2 20
26 2.6 23
81 8.1 12
100 10.0 57
100 10.0 17
30 3.0 53
39 3.9 26
25 2.5 96
99 9.9 91
48 4.8 52
35 3.5 34
43 4.3 81
10 1.0 75
84 8.4 43
37 3.7 85
19 1.9 57
53 5.3 88
3 0.3 25
9 0.9 63
58 5.8 66
1 0.1 62
62 6.2 99
3 0.3 18
7 0.7 98
45 4.5 58
87 8.7 85
56 5.6 50
56 5.6 6
40 4.0 12
93 9.3 90
74 7.4 62
58 5.8 27
23 2.3 59
81 8.1 23
46 4.6 2
23 2.3 65
13 1.3 20
92 9.2 80
52 5.2 51
33 3.3 70
4 0.4 27
96 9.6 50
72 7.2 93
62 6.2 87
55 5.5 92
41 4.1 9
70 7.0 31
87 8.7 99
51 5.1 70
51 5.1 98
78 7.8 37
75 7.5 13
100 10.0 15
44 4.4 98
23 2.3 41
67 6.7 29
35 3.5 77
52 5.2 57
11 1.1 54
17 1.7 67
47 4.7 70
20 2.0 16
29 2.9 28
46 4.6 19
37 3.7 45
69 6.9 51
40 4.0 45
37 3.7 38
62 6.2 55
32 3.2 38
60 6.0 8
64 6.4 87
29 2.9 58
62 6.2 8
84 8.4 22
16 1.6 11
71 7.1 40
42 4.2 42
55 5.5 7
66 6.6 23
37 3.7 92
4 0.4 48
33 3.3 1
10 1.0 1
10 1.0 91
65 6.5 36
98 9.8 97

22809
644

[1.278446691863935 1.855915801990749 0.08105970138512175 0.9673878146791545 0.43211775010947695 0.21082066431784383 3.6857497478157253 4.126761347609785 0.5007095149534389 4.691540921924618 4.6520183566838735 1.8618143244110799 4.359970569662299 3.8807354931323483 0.9347944270362207 1.9783124668947594 4.859800813759529 2.4064538380366347 2.7392432922654923 0.8574520966034952 4.554958231763408 4.5425342866681016 1.1010054704056962 0.01704445391808104 3.2489349321184497 1.7571190186721342 0.39136179787269754 0.8895127414998386 1.4272353922605188 4.514003629229026 2.9174645051051202 1.0975155314846123 3.6911429023812143 2.1978218932066715 2.2751710671322756 3.9829614615897175 3.7438829608596818 2.769932568045391 0.9881252652573966 3.8593348750948255 1.0603674289882388 0.8853128413569923 4.3980012832067095 2.0446724599583503 1.4487754309016079 0.8018977680593542 0.1913952217970037 4.862279547471183 2.278009859369495 3.235486966671805 4.097232278303329 1.7316995687241155 3.158479573097353 3.617623789748156 0.3006802296884846 3.7167186486098442 0.1717322204037107 2.2475271479575594 0.9066584596006921 3.28019157872013 2.441186915952728 2.3288105214186836 1.4677999335941927 3.2528367410828083 1.1245772566259051 3.4083171731295727 2.1589712785408084 3.904182123664733 1.3981753702938002 3.4843486946298188 1.8225229499171622 4.367023153191934 0.47390025732299246 3.891798741341666 4.239020720030036 3.1549607849966614 1.6114949627586477 3.5628537293906093 3.9842589793025036 0.857421937536382 0.3386885672945018 1.6520757735255742 4.685837796673836 0.40095672688880063 1.646888938275398 3.4870663905898054 1.6486214867937419 2.52679275581949 0.6090161596229499 3.9239139850232543 0.15272416647454717 0.47789227711645094 2.94026670989257 4.261006889523604 3.1020740634645008 3.1174716708954926 3.7413279315005425 0.5556726679934533 1.4083446397017478 4.730777221171399 4.040305691534439 2.4162600488453814 1.2050731352244883 2.7706298137562224 1.1060998105821638 0.6929293675703808 2.776447335974985 4.45031939250657 1.26849267256897 4.626674011560818 4.503427928966668 2.1572826127256812 4.020294072508149 0.09865658203024608 1.1181397452067185 4.587718918826875 2.797552399435407 2.4483717236095566 4.058834657568351 0.29105990201620807 1.711931238345741 4.844023581237384 2.8892341381500652 2.2763695770058474 4.155553974141888 2.962705291941367 0.7507419641374885 4.8806999229734735 0.39668171212909553 2.893845918873749]

[29 66 12 61 38 31 11 41 51 68 45 97 62 98 42 74 99 10 91 36 67 97 78 96 50 70 8 93 83 9 35 85 53 3 2 83 42 50 98 100 5 75 64 31 81 68 55 59 65 42 80 38 75 2 90 1 91 84 38 88 54 16 17 64 17 78 14 32 46 31 63 79 44 97 93 26 84 33 6 80 7 63 56 19 15 35 69 82 100 97 82 22 70 5 22 7 23 26 14 26 87 34 92 22 11 20 45 60 44 39 12 57 67 43 87 60 53 75 87 98 45 34 57 8 75 76 65 13 40 49]
